\ Model firm
\ LP format - for model browsing. Use MPS format to capture full model detail.
Maximize
  26.7527203952584 output - 5 emission + [ - 0.2202183974403257 output ^2
   + 0.0404367948806514 output * emission - 0.0202183974403257 emission ^2
   ] / 2 
Subject To
 R0: - output + emission <= 0
Bounds
End
